(set-info :smt-lib-version 2.6)
(set-logic QF_BV)
(set-info :source |
 Patrice Godefroid, SAGE (systematic dynamic test generation)
 For more information: http://research.microsoft.com/en-us/um/people/pg/public_psfiles/ndss2008.pdf
|)
(set-info :category "industrial")
(set-info :status sat)
(declare-fun T4_31276 () (_ BitVec 32))
(declare-fun T4_2115539 () (_ BitVec 32))
(declare-fun T1_2115539 () (_ BitVec 8))
(declare-fun T1_2115540 () (_ BitVec 8))
(declare-fun T1_2115541 () (_ BitVec 8))
(declare-fun T1_2115542 () (_ BitVec 8))
(declare-fun T1_31276 () (_ BitVec 8))
(declare-fun T1_31277 () (_ BitVec 8))
(declare-fun T1_31278 () (_ BitVec 8))
(declare-fun T1_31279 () (_ BitVec 8))
(assert (and true (= T4_31276 (bvor (bvshl (bvor (bvshl (bvor (bvshl ((_ zero_extend 24) T1_31279) (_ bv8 32)) ((_ zero_extend 24) T1_31278)) (_ bv8 32)) ((_ zero_extend 24) T1_31277)) (_ bv8 32)) ((_ zero_extend 24) T1_31276))) (= T4_2115539 (bvor (bvshl (bvor (bvshl (bvor (bvshl ((_ zero_extend 24) T1_2115542) (_ bv8 32)) ((_ zero_extend 24) T1_2115541)) (_ bv8 32)) ((_ zero_extend 24) T1_2115540)) (_ bv8 32)) ((_ zero_extend 24) T1_2115539))) (not (= T4_2115539 (_ bv1734566661 32))) (= T4_2115539 T4_31276)))
(check-sat)
(exit)
